p cnf 34 102
3 1 0
3 2 0
-1 -2 -3 0
4 5 -6 0
-4 -5 -6 0
4 -5 6 0
-4 5 6 0
-8 -7 0
-8 -2 0
7 2 8 0
-10 -8 0
-10 9 0
8 -9 10 0
-11 6 0
-11 10 0
-6 -10 11 0
-2 -12 -13 0
2 12 -13 0
-2 12 13 0
2 -12 13 0
-4 -8 -14 0
4 8 -14 0
-4 8 14 0
4 -8 14 0
-8 7 -17 0
8 -7 -17 0
-8 -7 17 0
8 7 17 0
-18 16 0
-18 17 0
-16 -17 18 0
-19 15 0
-19 -18 0
-15 18 19 0
-20 -19 0
-20 18 0
19 -18 20 0
21 -14 0
21 20 0
14 -20 -21 0
-22 13 0
-22 -21 0
-13 21 22 0
-11 -22 -23 0
11 22 -23 0
-11 22 23 0
11 -22 23 0
24 -2 0
24 -16 0
2 16 -24 0
26 -16 0
26 -25 0
16 25 -26 0
-27 26 0
-27 4 0
-26 -4 27 0
-28 24 0
-28 27 0
-24 -27 28 0
-29 23 0
-29 28 0
-23 -28 29 0
30 -8 0
30 12 0
8 -12 -30 0
31 9 0
31 2 0
-9 -2 -31 0
-30 -31 -32 0
30 31 -32 0
-30 31 32 0
30 -31 32 0
-33 29 0
-33 -32 0
-29 32 33 0
34 -3 0
34 -33 0
3 33 -34 0
-4 24 -17 0
14 -15 -25 1 -21 0
12 2 -24 -16 34 0
-1 -29 0
29 26 22 0
-5 -21 14 0
-24 -27 30 -21 0
16 24 -9 -34 0
-25 -18 -2 27 0
26 1 -9 0
29 21 19 -23 6 22 0
8 5 -20 32 7 0
-32 -9 0
3 -6 0
-28 -9 -11 -23 0
-23 18 -5 34 0
-22 17 0
6 -3 16 0
-7 -18 0
-8 -23 0
-14 16 13 -7 0
-23 21 0
5 -7 21 -17 0
34 0
